c File: flat50_3_0.col
c
c SOURCE: Joseph Culberson (joe@cs.ualberta.ca)
c DESCRIPTION: Quasi-random coloring problem
c              generated with flatness = 0
c                             probability = 0.139
c                             known coloring = 3
c                             random seed = 1464
c              Creation Date:  Tue Jun  9 12:09:59 1998
c Maximum degree = 7 Minimum degree = 1
c p edge 50 115
c cnf created by edge2cnf
p cnf 150 545
-1 -2 0
-1 -3 0
-2 -3 0
1 2 3 0
-4 -5 0
-4 -6 0
-5 -6 0
4 5 6 0
-7 -8 0
-7 -9 0
-8 -9 0
7 8 9 0
-10 -11 0
-10 -12 0
-11 -12 0
10 11 12 0
-13 -14 0
-13 -15 0
-14 -15 0
13 14 15 0
-16 -17 0
-16 -18 0
-17 -18 0
16 17 18 0
-19 -20 0
-19 -21 0
-20 -21 0
19 20 21 0
-22 -23 0
-22 -24 0
-23 -24 0
22 23 24 0
-25 -26 0
-25 -27 0
-26 -27 0
25 26 27 0
-28 -29 0
-28 -30 0
-29 -30 0
28 29 30 0
-31 -32 0
-31 -33 0
-32 -33 0
31 32 33 0
-34 -35 0
-34 -36 0
-35 -36 0
34 35 36 0
-37 -38 0
-37 -39 0
-38 -39 0
37 38 39 0
-40 -41 0
-40 -42 0
-41 -42 0
40 41 42 0
-43 -44 0
-43 -45 0
-44 -45 0
43 44 45 0
-46 -47 0
-46 -48 0
-47 -48 0
46 47 48 0
-49 -50 0
-49 -51 0
-50 -51 0
49 50 51 0
-52 -53 0
-52 -54 0
-53 -54 0
52 53 54 0
-55 -56 0
-55 -57 0
-56 -57 0
55 56 57 0
-58 -59 0
-58 -60 0
-59 -60 0
58 59 60 0
-61 -62 0
-61 -63 0
-62 -63 0
61 62 63 0
-64 -65 0
-64 -66 0
-65 -66 0
64 65 66 0
-67 -68 0
-67 -69 0
-68 -69 0
67 68 69 0
-70 -71 0
-70 -72 0
-71 -72 0
70 71 72 0
-73 -74 0
-73 -75 0
-74 -75 0
73 74 75 0
-76 -77 0
-76 -78 0
-77 -78 0
76 77 78 0
-79 -80 0
-79 -81 0
-80 -81 0
79 80 81 0
-82 -83 0
-82 -84 0
-83 -84 0
82 83 84 0
-85 -86 0
-85 -87 0
-86 -87 0
85 86 87 0
-88 -89 0
-88 -90 0
-89 -90 0
88 89 90 0
-91 -92 0
-91 -93 0
-92 -93 0
91 92 93 0
-94 -95 0
-94 -96 0
-95 -96 0
94 95 96 0
-97 -98 0
-97 -99 0
-98 -99 0
97 98 99 0
-100 -101 0
-100 -102 0
-101 -102 0
100 101 102 0
-103 -104 0
-103 -105 0
-104 -105 0
103 104 105 0
-106 -107 0
-106 -108 0
-107 -108 0
106 107 108 0
-109 -110 0
-109 -111 0
-110 -111 0
109 110 111 0
-112 -113 0
-112 -114 0
-113 -114 0
112 113 114 0
-115 -116 0
-115 -117 0
-116 -117 0
115 116 117 0
-118 -119 0
-118 -120 0
-119 -120 0
118 119 120 0
-121 -122 0
-121 -123 0
-122 -123 0
121 122 123 0
-124 -125 0
-124 -126 0
-125 -126 0
124 125 126 0
-127 -128 0
-127 -129 0
-128 -129 0
127 128 129 0
-130 -131 0
-130 -132 0
-131 -132 0
130 131 132 0
-133 -134 0
-133 -135 0
-134 -135 0
133 134 135 0
-136 -137 0
-136 -138 0
-137 -138 0
136 137 138 0
-139 -140 0
-139 -141 0
-140 -141 0
139 140 141 0
-142 -143 0
-142 -144 0
-143 -144 0
142 143 144 0
-145 -146 0
-145 -147 0
-146 -147 0
145 146 147 0
-148 -149 0
-148 -150 0
-149 -150 0
148 149 150 0
-67 -1 0
-68 -2 0
-69 -3 0
-124 -1 0
-125 -2 0
-126 -3 0
-127 -1 0
-128 -2 0
-129 -3 0
-139 -1 0
-140 -2 0
-141 -3 0
-70 -4 0
-71 -5 0
-72 -6 0
-79 -4 0
-80 -5 0
-81 -6 0
-85 -4 0
-86 -5 0
-87 -6 0
-94 -4 0
-95 -5 0
-96 -6 0
-121 -4 0
-122 -5 0
-123 -6 0
-142 -4 0
-143 -5 0
-144 -6 0
-148 -4 0
-149 -5 0
-150 -6 0
-55 -7 0
-56 -8 0
-57 -9 0
-64 -7 0
-65 -8 0
-66 -9 0
-85 -7 0
-86 -8 0
-87 -9 0
-100 -7 0
-101 -8 0
-102 -9 0
-112 -7 0
-113 -8 0
-114 -9 0
-124 -7 0
-125 -8 0
-126 -9 0
-67 -10 0
-68 -11 0
-69 -12 0
-82 -10 0
-83 -11 0
-84 -12 0
-91 -10 0
-92 -11 0
-93 -12 0
-94 -10 0
-95 -11 0
-96 -12 0
-109 -10 0
-110 -11 0
-111 -12 0
-118 -10 0
-119 -11 0
-120 -12 0
-121 -10 0
-122 -11 0
-123 -12 0
-55 -13 0
-56 -14 0
-57 -15 0
-112 -13 0
-113 -14 0
-114 -15 0
-139 -13 0
-140 -14 0
-141 -15 0
-142 -13 0
-143 -14 0
-144 -15 0
-148 -13 0
-149 -14 0
-150 -15 0
-67 -16 0
-68 -17 0
-69 -18 0
-100 -16 0
-101 -17 0
-102 -18 0
-124 -16 0
-125 -17 0
-126 -18 0
-127 -16 0
-128 -17 0
-129 -18 0
-79 -19 0
-80 -20 0
-81 -21 0
-112 -19 0
-113 -20 0
-114 -21 0
-118 -19 0
-119 -20 0
-120 -21 0
-52 -22 0
-53 -23 0
-54 -24 0
-97 -22 0
-98 -23 0
-99 -24 0
-100 -22 0
-101 -23 0
-102 -24 0
-97 -25 0
-98 -26 0
-99 -27 0
-103 -25 0
-104 -26 0
-105 -27 0
-115 -25 0
-116 -26 0
-117 -27 0
-118 -25 0
-119 -26 0
-120 -27 0
-91 -28 0
-92 -29 0
-93 -30 0
-136 -28 0
-137 -29 0
-138 -30 0
-58 -31 0
-59 -32 0
-60 -33 0
-130 -31 0
-131 -32 0
-132 -33 0
-139 -31 0
-140 -32 0
-141 -33 0
-52 -34 0
-53 -35 0
-54 -36 0
-91 -34 0
-92 -35 0
-93 -36 0
-97 -34 0
-98 -35 0
-99 -36 0
-109 -34 0
-110 -35 0
-111 -36 0
-124 -34 0
-125 -35 0
-126 -36 0
-148 -34 0
-149 -35 0
-150 -36 0
-64 -37 0
-65 -38 0
-66 -39 0
-79 -37 0
-80 -38 0
-81 -39 0
-100 -37 0
-101 -38 0
-102 -39 0
-115 -37 0
-116 -38 0
-117 -39 0
-61 -40 0
-62 -41 0
-63 -42 0
-73 -40 0
-74 -41 0
-75 -42 0
-94 -40 0
-95 -41 0
-96 -42 0
-133 -40 0
-134 -41 0
-135 -42 0
-136 -40 0
-137 -41 0
-138 -42 0
-70 -43 0
-71 -44 0
-72 -45 0
-85 -43 0
-86 -44 0
-87 -45 0
-94 -43 0
-95 -44 0
-96 -45 0
-106 -43 0
-107 -44 0
-108 -45 0
-142 -43 0
-143 -44 0
-144 -45 0
-85 -46 0
-86 -47 0
-87 -48 0
-121 -46 0
-122 -47 0
-123 -48 0
-130 -46 0
-131 -47 0
-132 -48 0
-139 -46 0
-140 -47 0
-141 -48 0
-55 -49 0
-56 -50 0
-57 -51 0
-61 -49 0
-62 -50 0
-63 -51 0
-73 -49 0
-74 -50 0
-75 -51 0
-91 -49 0
-92 -50 0
-93 -51 0
-109 -49 0
-110 -50 0
-111 -51 0
-109 -52 0
-110 -53 0
-111 -54 0
-124 -52 0
-125 -53 0
-126 -54 0
-130 -52 0
-131 -53 0
-132 -54 0
-136 -52 0
-137 -53 0
-138 -54 0
-118 -55 0
-119 -56 0
-120 -57 0
-112 -58 0
-113 -59 0
-114 -60 0
-148 -58 0
-149 -59 0
-150 -60 0
-112 -61 0
-113 -62 0
-114 -63 0
-148 -61 0
-149 -62 0
-150 -63 0
-145 -64 0
-146 -65 0
-147 -66 0
-103 -67 0
-104 -68 0
-105 -69 0
-142 -67 0
-143 -68 0
-144 -69 0
-148 -67 0
-149 -68 0
-150 -69 0
-115 -70 0
-116 -71 0
-117 -72 0
-127 -70 0
-128 -71 0
-129 -72 0
-133 -70 0
-134 -71 0
-135 -72 0
-139 -70 0
-140 -71 0
-141 -72 0
-145 -73 0
-146 -74 0
-147 -75 0
-148 -73 0
-149 -74 0
-150 -75 0
-106 -76 0
-107 -77 0
-108 -78 0
-115 -79 0
-116 -80 0
-117 -81 0
-136 -79 0
-137 -80 0
-138 -81 0
-127 -82 0
-128 -83 0
-129 -84 0
-136 -82 0
-137 -83 0
-138 -84 0
-118 -85 0
-119 -86 0
-120 -87 0
-109 -88 0
-110 -89 0
-111 -90 0
-121 -88 0
-122 -89 0
-123 -90 0
-139 -88 0
-140 -89 0
-141 -90 0
-103 -91 0
-104 -92 0
-105 -93 0
-124 -91 0
-125 -92 0
-126 -93 0
-133 -91 0
-134 -92 0
-135 -93 0
-103 -94 0
-104 -95 0
-105 -96 0
-130 -94 0
-131 -95 0
-132 -96 0
-103 -97 0
-104 -98 0
-105 -99 0
-130 -97 0
-131 -98 0
-132 -99 0
-118 -100 0
-119 -101 0
-120 -102 0
-133 -100 0
-134 -101 0
-135 -102 0
-136 -100 0
-137 -101 0
-138 -102 0
